Route #1: 227 346 386 467 507 546 505 545 544 584 583 542 502 463 423 343 224
Route #2: 27
Route #3: 309 349 389 469 548 588 589 550 510 551 591 592 593 594 554 513 473 432 392 352 272
Route #4: 69 109 151 155 156 77
Route #5: 275 435 475 515 556 557 558 598 599 559 520 480 399 359 279 239
Route #6: 161 241 361 481 521 522 523 483 484 444 324 285 245 205 165
Route #7: 250 330 370 491 531 530 529 489 448 488 487 527 526 566 525 485 366 287 247
Route #8: 12 52 90
Route #9: 173 214 295 335 375 337 258 218 178 137
Route #10: 142 381 421 541 581 540 539 499 538 578 537 536 496 495 534 574 533 493 492 452 332
Cost: 9337979
